
Gurobi 11.0.0 (linux64) logging started Fri Apr 12 14:00:31 2024

Set parameter LogFile to value "/lustre1/scratch/348/vsc34888/JointResearch/05.Models/06.Benchmarking/K.Investments_per_hour/RTS24_ByStages_nc70/openStarNet_RTS24_ByStages_nc70.log"
Set parameter Method to value 2
Set parameter MIPFocus to value 1
Set parameter Presolve to value 2
Set parameter RINS to value 100
Set parameter MIPGap to value 0.01
Set parameter Threads to value 36
Set parameter TimeLimit to value 259200
Set parameter IterationLimit to value 760000000
Gurobi Optimizer version 11.0.0 build v11.0.0rc2 (linux64 - "Rocky Linux 8.8 (Green Obsidian)")

CPU model: Intel(R) Xeon(R) Gold 6240 CPU @ 2.60GHz, instruction set [SSE2|AVX|AVX2|AVX512]
Thread count: 36 physical cores, 36 logical processors, using up to 36 threads

Optimize a model with 27233 rows, 16410 columns and 73009 nonzeros
Model fingerprint: 0x569faa9d
Variable types: 16380 continuous, 30 integer (30 binary)
Coefficient statistics:
  Matrix range     [3e-02, 5e+02]
  Objective range  [1e+00, 1e+00]
  Bounds range     [4e-04, 3e+00]
  RHS range        [4e-04, 3e+00]
Presolve removed 14563 rows and 7689 columns
Presolve time: 0.15s
Presolved: 12670 rows, 8721 columns, 44601 nonzeros
Variable types: 8691 continuous, 30 integer (30 binary)
Found heuristic solution: objective 320.4572658
Root relaxation presolved: 12670 rows, 8721 columns, 44601 nonzeros

Root barrier log...

Ordering time: 0.01s

Barrier statistics:
 Dense cols : 30
 AA' NZ     : 9.345e+04
 Factor NZ  : 2.451e+05 (roughly 10 MB of memory)
 Factor Ops : 5.223e+06 (less than 1 second per iteration)
 Threads    : 36

                  Objective                Residual
Iter       Primal          Dual         Primal    Dual     Compl     Time
   0   8.17456559e+05 -4.66922738e+07  6.37e+00 1.34e+02  5.18e+03     0s
   1   1.39271388e+05 -1.35443664e+07  8.98e-01 7.10e-10  7.73e+02     0s
   2   4.69815012e+04 -2.14006107e+06  1.58e-01 6.02e-10  9.80e+01     0s
   3   2.04210409e+04 -3.18414521e+05  2.93e-03 6.57e-11  1.27e+01     0s
   4   4.93604741e+03 -2.78341572e+04  1.89e-04 5.30e-12  1.23e+00     0s
   5   8.18672970e+02 -5.69545178e+03  9.33e-06 1.36e-12  2.44e-01     0s
   6   5.02062565e+02 -1.59423851e+03  7.41e-07 9.09e-13  7.84e-02     0s
   7   3.74730677e+02 -5.61551315e+02  3.03e-07 1.36e-12  3.50e-02     0s
   8   2.75072394e+02 -6.40188700e+01  8.11e-08 9.09e-13  1.27e-02     0s
   9   2.44519211e+02  7.63002018e+01  4.76e-08 9.09e-13  6.29e-03     0s
  10   2.24997612e+02  1.46601740e+02  2.86e-08 4.55e-13  2.93e-03     0s
  11   2.07414130e+02  1.79663473e+02  1.12e-08 1.36e-12  1.04e-03     0s
  12   2.01044620e+02  1.86645449e+02  5.00e-09 9.09e-13  5.38e-04     0s
  13   1.99169592e+02  1.91287069e+02  3.17e-09 9.09e-13  2.95e-04     0s
  14   1.98807582e+02  1.93054419e+02  2.78e-09 1.82e-12  2.15e-04     0s
  15   1.97560855e+02  1.94424421e+02  1.48e-09 9.09e-13  1.17e-04     0s
  16   1.96697243e+02  1.94768274e+02  6.19e-10 9.09e-13  7.21e-05     0s
  17   1.96476235e+02  1.95465748e+02  3.86e-10 9.09e-13  3.78e-05     0s
  18   1.96241353e+02  1.96021601e+02  1.32e-10 1.82e-12  8.21e-06     0s
  19   1.96153395e+02  1.96084372e+02  6.92e-11 9.09e-13  2.58e-06     0s
  20   1.96123267e+02  1.96103718e+02  5.10e-11 1.82e-12  7.31e-07     0s
  21   1.96113097e+02  1.96112727e+02  8.98e-11 9.09e-13  1.38e-08     0s
  22   1.96113004e+02  1.96112976e+02  4.11e-10 1.87e-12  1.02e-09     0s
  23   1.96113001e+02  1.96112999e+02  5.95e-10 1.43e-12  7.08e-11     0s

Barrier solved model in 23 iterations and 0.48 seconds (0.46 work units)
Optimal objective 1.96113001e+02


Root relaxation: objective 1.961130e+02, 1799 iterations, 0.31 seconds (0.19 work units)

    Nodes    |    Current Node    |     Objective Bounds      |     Work
 Expl Unexpl |  Obj  Depth IntInf | Incumbent    BestBd   Gap | It/Node Time

     0     0  196.11300    0   24  320.45727  196.11300  38.8%     -    0s
     0     0  198.61835    0   16  320.45727  198.61835  38.0%     -    1s
H    0     0                     308.8804866  198.61835  35.7%     -    1s
     0     0  198.65358    0   15  308.88049  198.65358  35.7%     -    1s
H    0     0                     284.6082345  198.65358  30.2%     -    1s
     0     0  199.55730    0   16  284.60823  199.55730  29.9%     -    1s
H    0     0                     266.0823765  199.55748  25.0%     -    1s
     0     0  199.55748    0   15  266.08238  199.55748  25.0%     -    1s
H    0     0                     257.2221913  199.55748  22.4%     -    1s
     0     0  199.67893    0   15  257.22219  199.67893  22.4%     -    2s
     0     0  199.71034    0   14  257.22219  199.71034  22.4%     -    2s
     0     0  199.71290    0   14  257.22219  199.71290  22.4%     -    2s
     0     0  199.71290    0   14  257.22219  199.71290  22.4%     -    2s
     0     0  199.79222    0   13  257.22219  199.79222  22.3%     -    2s
     0     0  200.09815    0   13  257.22219  200.09815  22.2%     -    2s
     0     0  200.09815    0   13  257.22219  200.09815  22.2%     -    2s
     0     0  200.81336    0   12  257.22219  200.81336  21.9%     -    4s
H    0     0                     252.9678617  200.81336  20.6%     -    4s
H    0     0                     226.4904003  200.81336  11.3%     -   10s
     0     2  200.81336    0   12  226.49040  200.81336  11.3%     -   11s
    95   125  204.78850    7   16  226.49040  204.77791  9.59%   623   23s
H   96   125                     225.4006302  204.77791  9.15%   617   23s
   203   224  206.41151    9   14  225.40063  204.77791  9.15%   466   25s
   399   340     cutoff   12       225.40063  204.77791  9.15%   410   42s
  1033   518     cutoff   11       225.40063  205.19090  8.97%   353   45s
  1250   516  219.27270   13   11  225.40063  205.19090  8.97%   337   50s
  3299   744  224.25865   15    8  225.40063  210.76998  6.49%   283   79s
  3773   786     cutoff   13       225.40063  214.24210  4.95%   274   80s
  6190   960  224.11545   16    7  225.40063  217.15691  3.66%   239  100s
  6596   976  219.72297   15    7  225.40063  219.07677  2.81%   235  117s
  7678  1013  224.05361   19    4  225.40063  220.33540  2.25%   224  126s
  9296   927     cutoff   16       225.40063  221.26203  1.84%   211  145s
 12093   311     cutoff   15       225.40063  222.80473  1.15%   194  158s

Cutting planes:
  Gomory: 6
  Implied bound: 6
  MIR: 598
  Relax-and-lift: 46

Explored 13506 nodes (2486042 simplex iterations) in 159.51 seconds (198.99 work units)
Thread count was 36 (of 36 available processors)

Solution count 8: 225.401 226.49 252.968 ... 320.457

Optimal solution found (tolerance 1.00e-02)
Best objective 2.254006301547e+02, best bound 2.254006301547e+02, gap 0.0000%

Gurobi 11.0.0 (linux64) logging started Fri Apr 12 14:03:13 2024

Set parameter LogFile to value "/lustre1/scratch/348/vsc34888/JointResearch/05.Models/06.Benchmarking/K.Investments_per_hour/RTS24_ByStages_nc70/openStarNet_RTS24_ByStages_nc70.log"
Set parameter Method to value 2
Set parameter MIPFocus to value 1
Set parameter Presolve to value 2
Set parameter RINS to value 100
Set parameter MIPGap to value 0.01
Set parameter Threads to value 36
Set parameter TimeLimit to value 259200
Set parameter IterationLimit to value 760000000
Gurobi Optimizer version 11.0.0 build v11.0.0rc2 (linux64 - "Rocky Linux 8.8 (Green Obsidian)")

CPU model: Intel(R) Xeon(R) Gold 6240 CPU @ 2.60GHz, instruction set [SSE2|AVX|AVX2|AVX512]
Thread count: 36 physical cores, 36 logical processors, using up to 36 threads

Optimize a model with 27233 rows, 16380 columns and 64579 nonzeros
Model fingerprint: 0xca3e4698
Coefficient statistics:
  Matrix range     [3e-02, 5e+02]
  Objective range  [1e+00, 1e+00]
  Bounds range     [4e-04, 3e+00]
  RHS range        [4e-04, 4e+01]
Presolve removed 23291 rows and 9557 columns
Presolve time: 0.03s
Presolved: 3942 rows, 6893 columns, 17415 nonzeros

Ordering time: 0.00s

Barrier statistics:
 AA' NZ     : 9.486e+03
 Factor NZ  : 3.149e+04 (roughly 3 MB of memory)
 Factor Ops : 4.091e+05 (less than 1 second per iteration)
 Threads    : 1

                  Objective                Residual
Iter       Primal          Dual         Primal    Dual     Compl     Time
   0   3.64557811e+06 -3.39103366e+07  1.51e+01 5.05e+02  4.58e+04     0s
   1   2.37278985e+05 -2.71826932e+07  8.61e-01 2.36e-11  4.58e+03     0s
   2   6.97394604e+04 -7.96171535e+06  1.85e-01 4.91e-11  9.38e+02     0s
   3   3.98680493e+04 -1.72985544e+06  4.91e-02 2.91e-11  1.81e+02     0s
   4   2.51002634e+04 -2.85988977e+05  3.30e-05 1.31e-11  2.79e+01     0s
   5   1.38740382e+04 -8.25922746e+04  3.43e-06 7.53e-12  8.66e+00     0s
   6   4.57830400e+03 -1.06393656e+04  7.35e-07 3.64e-12  1.37e+00     0s
   7   5.56678680e+02 -1.24979239e+03  5.16e-10 3.64e-12  1.62e-01     0s
   8   3.95530467e+02 -1.54239084e+02  4.86e-11 3.64e-12  4.94e-02     0s
   9   2.94470595e+02  7.22770894e+01  1.34e-11 7.28e-12  2.00e-02     0s
  10   2.68453573e+02  1.60403804e+02  7.56e-12 3.64e-12  9.70e-03     0s
  11   2.45122984e+02  1.96922965e+02  3.39e-12 3.64e-12  4.33e-03     0s
  12   2.34280895e+02  2.12732641e+02  1.44e-12 3.64e-12  1.94e-03     0s
  13   2.28584971e+02  2.23034366e+02  2.48e-12 5.46e-12  4.98e-04     0s
  14   2.25664787e+02  2.25080763e+02  9.99e-12 7.28e-12  5.24e-05     0s
  15   2.25405837e+02  2.25388155e+02  1.55e-11 3.64e-12  1.59e-06     0s
  16   2.25400654e+02  2.25399748e+02  2.01e-09 3.64e-12  8.13e-08     0s
  17   2.25400630e+02  2.25400630e+02  1.43e-11 7.28e-12  4.56e-12     0s
  18   2.25400630e+02  2.25400630e+02  6.55e-11 3.64e-12  1.40e-16     0s

Barrier solved model in 18 iterations and 0.07 seconds (0.07 work units)
Optimal objective 2.25400630e+02

Crossover log...

     813 DPushes remaining with DInf 0.0000000e+00                 0s
       0 DPushes remaining with DInf 0.0000000e+00                 0s

     212 PPushes remaining with PInf 0.0000000e+00                 0s
       0 PPushes remaining with PInf 0.0000000e+00                 0s

  Push phase complete: Pinf 0.0000000e+00, Dinf 1.1461771e-12      0s

Iteration    Objective       Primal Inf.    Dual Inf.      Time
     226    2.2540063e+02   0.000000e+00   0.000000e+00      0s

Use crossover to convert LP symmetric solution to basic solution...
Crossover log...

     117 PPushes remaining with PInf 0.0000000e+00                 0s
       0 PPushes remaining with PInf 0.0000000e+00                 0s

  Push phase complete: Pinf 0.0000000e+00, Dinf 1.8968167e-12      0s

Iteration    Objective       Primal Inf.    Dual Inf.      Time
     346    2.2540063e+02   0.000000e+00   0.000000e+00      0s

Solved in 346 iterations and 0.10 seconds (0.09 work units)
Optimal objective  2.254006302e+02
